NAME          EXAMPLE2
ROWS
 N  OBJ
 L  R1
 G  R2
 E  R3
COLUMNS
    X1        R1        1              R2         1
    X1        OBJ       1
    X2        R1        1              R3        -1
    X2        OBJ       4
    X3        R2        1              R3         1
    X3        OBJ       9
RHS
    B1        R1        5              R2         10
    B1        R3        7
BOUNDS
 UP BND1      X1        4
 LO BND1      X2       -1
 UP BND1      X2        1
ENDATA